c this is the SAT instance from the graph 
p cnf 30 29
1 2 0
1 3 0
1 4 0
1 5 0
2 6 0
2 7 0
2 8 0
2 9 0
3 10 0
3 11 0
3 12 0
3 13 0
4 14 0
4 15 0
4 16 0
4 17 0
5 18 0
5 19 0
5 20 0
5 21 0
6 22 0
6 23 0
6 24 0
6 25 0
7 26 0
7 27 0
7 28 0
7 29 0
8 30 0
